NAME : ct_5_n_3_k10_t_60
COMMENT : (ct_5_n_3_k10_t_60, Min no of trucks: 3, Optimal value: 54.73199266095234, Split: Yes)
TYPE : SDVRP
DIMENSION : 6
EDGE_WEIGHT_TYPE : EUC_2D
CAPACITY : 10
NODE_COORD_SECTION
1 0 0
2 2 4
3 8 1
4 -1 -10
5 -5 -6
6 -7 5
DEMAND_SECTION
1 0
2 3.9
3 4.9
4 3.0
5 2.6
6 3.6
DEPOT_SECTION
 1
EOF